54
2 107 90 
2 45 69 
2 37 11 
2 86 44 
2 1 5 
3 103 67 34 
2 36 47 
2 48 40 
2 71 109 
3 115 2 41 
3 24 116 84 
2 64 102 
2 30 38 
3 112 61 53 
3 4 46 13 
2 17 92 
2 52 99 
2 3 75 
2 19 91 
3 83 96 108 
3 43 106 100 
2 105 8 
2 87 20 
2 21 27 
2 97 59 
3 18 72 70 
2 73 80 
1 35 
2 25 56 
3 76 57 58 
3 62 33 89 
3 39 60 16 
2 113 104 
2 118 42 
2 79 22 
2 93 26 
2 88 85 
2 55 10 
4 111 78 101 6 
3 7 94 82 
2 74 9 
2 68 32 
2 63 95 
3 31 81 23 
2 110 117 
2 119 28 
1 14 
1 49 
2 98 50 
2 114 29 
2 15 54 
2 51 120 
2 77 12 
2 66 65 
